p cnf 55 203
c p weight 6 -1 0
c p weight -6 1 0
c p weight 8 6.12323399573676603586882014729198302312846062338790031898128063403419218957424163818359375E-17 0
c p weight -8 1 0
c p weight 9 1 0
c p weight -9 1 0
c p weight 10 -1 0
c p weight -10 1 0
c p weight 12 -1 0
c p weight -12 1 0
c p weight 15 -1 0
c p weight -15 1 0
c p weight 17 -1 0
c p weight -17 1 0
c p weight 19 6.12323399573676603586882014729198302312846062338790031898128063403419218957424163818359375E-17 0
c p weight -19 1 0
c p weight 20 1 0
c p weight -20 1 0
c p weight 21 -1 0
c p weight -21 1 0
c p weight 23 -1 0
c p weight -23 1 0
c p weight 25 0.70710678118654752440084436210485 0
c p weight -25 1 0
c p weight 26 -1 0
c p weight -26 1 0
c p weight 29 -1 0
c p weight -29 1 0
c p weight 31 0.70710678118654752440084436210485 0
c p weight -31 1 0
c p weight 32 -1 0
c p weight -32 1 0
c p weight 35 -1 0
c p weight -35 1 0
c p weight 37 0.70710678118654752440084436210485 0
c p weight -37 1 0
c p weight 38 -1 0
c p weight -38 1 0
c p weight 40 -1 0
c p weight -40 1 0
c p weight 42 6.12323399573676603586882014729198302312846062338790031898128063403419218957424163818359375E-17 0
c p weight -42 1 0
c p weight 43 1 0
c p weight -43 1 0
c p weight 44 -1 0
c p weight -44 1 0
c p weight 46 -1 0
c p weight -46 1 0
c p weight 49 -1 0
c p weight -49 1 0
c p weight 52 -1 0
c p weight -52 1 0
c p weight 55 -1 0
c p weight -55 1 0
-3 0
-1 0
5 3 -4 0
5 -3 4 0
-5 3 4 0
-5 -3 -4 0
-6 3 0
-6 4 0
6 -3 -4 0
7 -3 5 0
-7 3 5 0
-8 5 0
7 -8 -3 0
-7 -8 3 0
7 8 3 -5 0
-7 8 -3 -5 0
-9 5 0
7 -9 3 0
-7 -9 -3 0
7 9 -3 -5 0
-7 9 3 -5 0
-10 7 0
-10 5 0
-10 -3 0
10 -7 3 -5 0
11 7 -5 0
11 -7 5 0
-11 7 5 0
-11 -7 -5 0
-12 7 0
-12 5 0
12 -7 -5 0
13 7 -1 0
13 -7 1 0
-13 7 1 0
-13 -7 -1 0
14 11 -2 0
14 -11 2 0
-14 11 2 0
-14 -11 -2 0
-15 7 0
-15 2 0
-15 1 -11 0
-15 -1 11 0
15 -7 1 11 -2 0
15 -7 -1 -11 -2 0
16 7 -14 0
16 -7 14 0
-16 7 14 0
-16 -7 -14 0
-17 7 0
-17 14 0
17 -7 -14 0
18 -7 16 0
-18 7 16 0
-19 16 0
18 -19 -7 0
-18 -19 7 0
18 19 7 -16 0
-18 19 -7 -16 0
-20 16 0
18 -20 7 0
-18 -20 -7 0
18 20 -7 -16 0
-18 20 7 -16 0
-21 18 0
-21 16 0
-21 -7 0
21 -18 7 -16 0
22 18 -16 0
22 -18 16 0
-22 18 16 0
-22 -18 -16 0
-23 18 0
-23 16 0
23 -18 -16 0
24 18 -22 0
-24 18 22 0
25 -18 0
-25 18 0
-26 18 0
-26 22 0
-26 -24 0
26 24 -18 -22 0
27 18 -13 0
27 -18 13 0
-27 18 13 0
-27 -18 -13 0
28 24 -2 0
28 -24 2 0
-28 24 2 0
-28 -24 -2 0
-29 18 0
-29 2 0
-29 13 -24 0
-29 -13 24 0
29 -18 13 24 -2 0
29 -18 -13 -24 -2 0
30 27 -2 0
-30 27 2 0
31 -27 0
-31 27 0
-32 30 0
-32 27 0
-32 -2 0
32 -30 -27 2 0
33 18 -27 0
33 -18 27 0
-33 18 27 0
-33 -18 -27 0
34 28 -30 0
34 -28 30 0
-34 28 30 0
-34 -28 -30 0
-35 18 0
-35 30 0
-35 27 -28 0
-35 -27 28 0
35 -18 27 28 -30 0
35 -18 -27 -28 -30 0
36 33 -30 0
-36 33 30 0
37 -33 0
-37 33 0
-38 33 0
-38 30 0
-38 -36 0
38 36 -33 -30 0
39 33 -36 0
39 -33 36 0
-39 33 36 0
-39 -33 -36 0
-40 33 0
-40 36 0
40 -33 -36 0
41 -33 39 0
-41 33 39 0
-42 39 0
41 -42 -33 0
-41 -42 33 0
41 42 33 -39 0
-41 42 -33 -39 0
-43 39 0
41 -43 33 0
-41 -43 -33 0
41 43 -33 -39 0
-41 43 33 -39 0
-44 41 0
-44 39 0
-44 -33 0
44 -41 33 -39 0
45 41 -39 0
45 -41 39 0
-45 41 39 0
-45 -41 -39 0
-46 41 0
-46 39 0
46 -41 -39 0
47 41 -18 0
47 -41 18 0
-47 41 18 0
-47 -41 -18 0
48 45 -34 0
48 -45 34 0
-48 45 34 0
-48 -45 -34 0
-49 41 0
-49 34 0
-49 18 -45 0
-49 -18 45 0
49 -41 18 45 -34 0
49 -41 -18 -45 -34 0
50 47 -41 0
50 -47 41 0
-50 47 41 0
-50 -47 -41 0
51 34 -48 0
51 -34 48 0
-51 34 48 0
-51 -34 -48 0
-52 47 0
-52 48 0
-52 41 -34 0
-52 -41 34 0
52 -47 41 34 -48 0
52 -47 -41 -34 -48 0
53 50 -47 0
53 -50 47 0
-53 50 47 0
-53 -50 -47 0
54 48 -51 0
54 -48 51 0
-54 48 51 0
-54 -48 -51 0
-55 50 0
-55 51 0
-55 47 -48 0
-55 -47 48 0
55 -50 47 48 -51 0
55 -50 -47 -48 -51 0
-50 0
-53 0
-51 0
